c FILE: jacksGraph.col
c SOURCE: Jack Hogg (jhogg@etud.univ-angers.fr)
c DESCRIPTION: K5,3 Bi-clique
p edge 8 15
e 1 2
e 1 3
e 1 4
e 5 2
e 5 3
e 5 4
e 6 2
e 6 3
e 6 4
e 7 2
e 7 3
e 7 4
e 8 2
e 8 3
e 8 4
